c Reduced graph for GEOM90 generated by Cyril Grelier
p edge 80 380
e 1 2
e 1 16
e 1 27
e 1 32
e 1 34
e 1 47
e 1 48
e 1 61
e 1 62
e 1 71
e 1 74
e 1 75
e 2 29
e 2 32
e 2 34
e 2 40
e 2 47
e 2 48
e 2 61
e 2 62
e 2 65
e 2 74
e 2 75
e 3 6
e 3 17
e 3 26
e 3 35
e 3 43
e 3 45
e 3 76
e 3 77
e 3 78
e 3 80
e 4 5
e 4 30
e 4 33
e 4 49
e 4 55
e 4 56
e 4 57
e 4 64
e 4 70
e 5 19
e 5 33
e 5 49
e 5 55
e 5 56
e 5 57
e 5 64
e 5 70
e 6 35
e 6 43
e 6 59
e 6 76
e 6 77
e 6 78
e 6 80
e 7 10
e 7 11
e 7 28
e 7 53
e 7 58
e 7 72
e 7 73
e 8 9
e 8 44
e 8 46
e 8 60
e 8 63
e 8 79
e 9 44
e 9 46
e 9 60
e 9 63
e 9 79
e 10 19
e 10 28
e 10 57
e 10 58
e 10 72
e 11 28
e 11 53
e 11 58
e 11 72
e 11 73
e 12 18
e 12 19
e 12 36
e 12 38
e 12 53
e 12 57
e 13 14
e 13 21
e 13 43
e 13 76
e 13 78
e 14 21
e 14 43
e 14 76
e 14 78
e 15 23
e 15 24
e 15 25
e 15 30
e 15 39
e 15 40
e 15 49
e 15 50
e 15 52
e 15 66
e 15 69
e 15 74
e 16 27
e 16 31
e 16 32
e 16 41
e 16 42
e 16 54
e 16 60
e 16 62
e 16 67
e 16 68
e 16 71
e 17 18
e 17 26
e 17 35
e 17 36
e 17 42
e 17 54
e 17 68
e 17 77
e 17 80
e 18 36
e 18 38
e 18 53
e 18 59
e 18 73
e 18 77
e 19 28
e 19 57
e 19 72
e 20 41
e 20 42
e 20 45
e 20 51
e 20 63
e 20 79
e 21 43
e 21 76
e 21 78
e 22 23
e 22 25
e 22 50
e 22 52
e 22 66
e 23 24
e 23 25
e 23 30
e 23 39
e 23 40
e 23 50
e 23 52
e 23 65
e 23 66
e 23 69
e 23 74
e 24 25
e 24 30
e 24 39
e 24 40
e 24 47
e 24 49
e 24 50
e 24 52
e 24 61
e 24 74
e 25 29
e 25 40
e 25 50
e 25 52
e 25 65
e 25 66
e 26 35
e 26 41
e 26 42
e 26 45
e 26 51
e 26 54
e 26 68
e 26 80
e 27 32
e 27 47
e 27 61
e 27 67
e 27 71
e 27 74
e 28 53
e 28 58
e 28 72
e 29 34
e 29 40
e 29 47
e 29 65
e 29 75
e 30 33
e 30 39
e 30 40
e 30 49
e 30 50
e 30 55
e 30 56
e 30 64
e 30 69
e 30 70
e 30 74
e 31 32
e 31 37
e 31 41
e 31 42
e 31 48
e 31 51
e 31 54
e 31 60
e 31 62
e 31 67
e 31 68
e 31 71
e 31 79
e 32 34
e 32 47
e 32 48
e 32 61
e 32 62
e 32 67
e 32 71
e 32 75
e 33 39
e 33 49
e 33 55
e 33 56
e 33 57
e 33 64
e 33 70
e 34 47
e 34 48
e 34 61
e 34 65
e 34 75
e 35 43
e 35 76
e 35 77
e 35 78
e 35 80
e 36 38
e 36 53
e 36 59
e 36 77
e 37 44
e 37 48
e 37 60
e 37 62
e 37 79
e 38 53
e 38 57
e 39 40
e 39 49
e 39 50
e 39 52
e 39 55
e 39 56
e 39 64
e 39 69
e 39 70
e 39 74
e 40 47
e 40 50
e 40 52
e 40 61
e 40 65
e 40 74
e 40 75
e 41 42
e 41 45
e 41 51
e 41 54
e 41 60
e 41 63
e 41 67
e 41 68
e 41 79
e 42 45
e 42 51
e 42 54
e 42 63
e 42 67
e 42 68
e 43 76
e 43 77
e 43 78
e 43 80
e 44 46
e 44 48
e 44 60
e 44 62
e 44 79
e 45 51
e 45 63
e 45 68
e 47 48
e 47 61
e 47 65
e 47 74
e 47 75
e 48 60
e 48 61
e 48 62
e 48 67
e 48 75
e 49 55
e 49 56
e 49 64
e 49 69
e 49 70
e 50 52
e 50 66
e 50 69
e 50 74
e 51 54
e 51 60
e 51 63
e 51 67
e 51 68
e 51 79
e 52 65
e 52 66
e 52 69
e 53 58
e 53 59
e 53 72
e 53 73
e 54 67
e 54 68
e 54 71
e 55 56
e 55 64
e 55 69
e 55 70
e 56 64
e 56 69
e 56 70
e 57 70
e 58 72
e 59 73
e 59 77
e 60 62
e 60 63
e 60 67
e 60 68
e 60 79
e 61 71
e 61 74
e 61 75
e 62 67
e 62 71
e 62 79
e 63 68
e 63 79
e 64 70
e 65 75
e 66 69
e 67 68
e 67 71
e 67 79
e 72 73
e 74 75
e 76 77
e 76 78
e 76 80
e 77 80
e 78 80
